NAME           C:\Bruker\Hvattum\knapsack\Problems\class4\100-10-16.mps
ROWS
 N  OBJ
 L  CONSTR1
 L  CONSTR2
 L  CONSTR3
 L  CONSTR4
 L  CONSTR5
 L  CONSTR6
 L  CONSTR7
 L  CONSTR8
 L  CONSTR9
 L  CONSTR10
COLUMNS
    INT0001   'MARKER'  'INTORG'
    X1        OBJ       981
    X1        CONSTR1   831
    X1        CONSTR2   964
    X1        CONSTR3   529
    X1        CONSTR4   254
    X1        CONSTR5   377
    X1        CONSTR6   862
    X1        CONSTR7   273
    X1        CONSTR8   291
    X1        CONSTR9   287
    X1        CONSTR10  891
    X2        OBJ       850
    X2        CONSTR1   622
    X2        CONSTR2   953
    X2        CONSTR3   224
    X2        CONSTR4   828
    X2        CONSTR5   305
    X2        CONSTR6   231
    X2        CONSTR7   422
    X2        CONSTR8   832
    X2        CONSTR9   389
    X2        CONSTR10  173
    X3        OBJ       949
    X3        CONSTR1   275
    X3        CONSTR2   467
    X3        CONSTR3   397
    X3        CONSTR4   665
    X3        CONSTR5   581
    X3        CONSTR6   947
    X3        CONSTR7   996
    X3        CONSTR8   458
    X3        CONSTR9   88
    X3        CONSTR10  697
    X4        OBJ       634
    X4        CONSTR1   332
    X4        CONSTR2   338
    X4        CONSTR3   644
    X4        CONSTR4   933
    X4        CONSTR5   332
    X4        CONSTR6   344
    X4        CONSTR7   282
    X4        CONSTR8   814
    X4        CONSTR9   416
    X4        CONSTR10  39
    X5        OBJ       846
    X5        CONSTR1   220
    X5        CONSTR2   512
    X5        CONSTR3   538
    X5        CONSTR4   277
    X5        CONSTR5   573
    X5        CONSTR6   26
    X5        CONSTR7   477
    X5        CONSTR8   733
    X5        CONSTR9   734
    X5        CONSTR10  639
    X6        OBJ       780
    X6        CONSTR1   590
    X6        CONSTR2   348
    X6        CONSTR3   857
    X6        CONSTR4   436
    X6        CONSTR5   187
    X6        CONSTR6   456
    X6        CONSTR7   303
    X6        CONSTR8   224
    X6        CONSTR9   216
    X6        CONSTR10  118
    X7        OBJ       567
    X7        CONSTR1   144
    X7        CONSTR2   189
    X7        CONSTR3   261
    X7        CONSTR4   973
    X7        CONSTR5   291
    X7        CONSTR6   759
    X7        CONSTR7   985
    X7        CONSTR8   154
    X7        CONSTR9   387
    X7        CONSTR10  670
    X8        OBJ       586
    X8        CONSTR1   735
    X8        CONSTR2   678
    X8        CONSTR3   117
    X8        CONSTR4   23
    X8        CONSTR5   993
    X8        CONSTR6   379
    X8        CONSTR7   246
    X8        CONSTR8   749
    X8        CONSTR9   916
    X8        CONSTR10  642
    X9        OBJ       973
    X9        CONSTR1   765
    X9        CONSTR2   351
    X9        CONSTR3   822
    X9        CONSTR4   963
    X9        CONSTR5   446
    X9        CONSTR6   748
    X9        CONSTR7   811
    X9        CONSTR8   782
    X9        CONSTR9   192
    X9        CONSTR10  665
    X10       OBJ       660
    X10       CONSTR1   978
    X10       CONSTR2   101
    X10       CONSTR3   797
    X10       CONSTR4   318
    X10       CONSTR5   206
    X10       CONSTR6   833
    X10       CONSTR7   973
    X10       CONSTR8   620
    X10       CONSTR9   732
    X10       CONSTR10  926
    X11       OBJ       831
    X11       CONSTR1   131
    X11       CONSTR2   443
    X11       CONSTR3   25
    X11       CONSTR4   627
    X11       CONSTR5   324
    X11       CONSTR6   886
    X11       CONSTR7   868
    X11       CONSTR8   256
    X11       CONSTR9   824
    X11       CONSTR10  944
    X12       OBJ       567
    X12       CONSTR1   819
    X12       CONSTR2   583
    X12       CONSTR3   426
    X12       CONSTR4   194
    X12       CONSTR5   475
    X12       CONSTR6   228
    X12       CONSTR7   918
    X12       CONSTR8   29
    X12       CONSTR9   587
    X12       CONSTR10  559
    X13       OBJ       433
    X13       CONSTR1   254
    X13       CONSTR2   524
    X13       CONSTR3   905
    X13       CONSTR4   797
    X13       CONSTR5   329
    X13       CONSTR6   114
    X13       CONSTR7   257
    X13       CONSTR8   239
    X13       CONSTR9   282
    X13       CONSTR10  105
    X14       OBJ       592
    X14       CONSTR1   169
    X14       CONSTR2   125
    X14       CONSTR3   87
    X14       CONSTR4   322
    X14       CONSTR5   88
    X14       CONSTR6   309
    X14       CONSTR7   290
    X14       CONSTR8   858
    X14       CONSTR9   198
    X14       CONSTR10  128
    X15       OBJ       882
    X15       CONSTR1   770
    X15       CONSTR2   545
    X15       CONSTR3   889
    X15       CONSTR4   940
    X15       CONSTR5   511
    X15       CONSTR6   798
    X15       CONSTR7   576
    X15       CONSTR8   785
    X15       CONSTR9   818
    X15       CONSTR10  505
    X16       OBJ       732
    X16       CONSTR1   258
    X16       CONSTR2   150
    X16       CONSTR3   987
    X16       CONSTR4   577
    X16       CONSTR5   111
    X16       CONSTR6   68
    X16       CONSTR7   224
    X16       CONSTR8   413
    X16       CONSTR9   945
    X16       CONSTR10  503
    X17       OBJ       630
    X17       CONSTR1   886
    X17       CONSTR2   343
    X17       CONSTR3   566
    X17       CONSTR4   51
    X17       CONSTR5   386
    X17       CONSTR6   152
    X17       CONSTR7   661
    X17       CONSTR8   525
    X17       CONSTR9   485
    X17       CONSTR10  94
    X18       OBJ       472
    X18       CONSTR1   12
    X18       CONSTR2   125
    X18       CONSTR3   306
    X18       CONSTR4   131
    X18       CONSTR5   152
    X18       CONSTR6   298
    X18       CONSTR7   482
    X18       CONSTR8   573
    X18       CONSTR9   229
    X18       CONSTR10  647
    X19       OBJ       671
    X19       CONSTR1   301
    X19       CONSTR2   127
    X19       CONSTR3   886
    X19       CONSTR4   558
    X19       CONSTR5   545
    X19       CONSTR6   267
    X19       CONSTR7   48
    X19       CONSTR8   893
    X19       CONSTR9   840
    X19       CONSTR10  584
    X20       OBJ       731
    X20       CONSTR1   699
    X20       CONSTR2   778
    X20       CONSTR3   749
    X20       CONSTR4   760
    X20       CONSTR5   470
    X20       CONSTR6   23
    X20       CONSTR7   411
    X20       CONSTR8   20
    X20       CONSTR9   509
    X20       CONSTR10  910
    X21       OBJ       910
    X21       CONSTR1   293
    X21       CONSTR2   162
    X21       CONSTR3   820
    X21       CONSTR4   594
    X21       CONSTR5   834
    X21       CONSTR6   489
    X21       CONSTR7   497
    X21       CONSTR8   933
    X21       CONSTR9   268
    X21       CONSTR10  303
    X22       OBJ       769
    X22       CONSTR1   234
    X22       CONSTR2   376
    X22       CONSTR3   193
    X22       CONSTR4   975
    X22       CONSTR5   884
    X22       CONSTR6   370
    X22       CONSTR7   876
    X22       CONSTR8   457
    X22       CONSTR9   749
    X22       CONSTR10  550
    X23       OBJ       817
    X23       CONSTR1   267
    X23       CONSTR2   242
    X23       CONSTR3   370
    X23       CONSTR4   435
    X23       CONSTR5   129
    X23       CONSTR6   533
    X23       CONSTR7   770
    X23       CONSTR8   963
    X23       CONSTR9   726
    X23       CONSTR10  40
    X24       OBJ       465
    X24       CONSTR1   26
    X24       CONSTR2   184
    X24       CONSTR3   478
    X24       CONSTR4   221
    X24       CONSTR5   994
    X24       CONSTR6   619
    X24       CONSTR7   352
    X24       CONSTR8   4
    X24       CONSTR9   442
    X24       CONSTR10  134
    X25       OBJ       854
    X25       CONSTR1   681
    X25       CONSTR2   842
    X25       CONSTR3   860
    X25       CONSTR4   441
    X25       CONSTR5   748
    X25       CONSTR6   607
    X25       CONSTR7   881
    X25       CONSTR8   97
    X25       CONSTR9   685
    X25       CONSTR10  55
    X26       OBJ       858
    X26       CONSTR1   370
    X26       CONSTR2   444
    X26       CONSTR3   336
    X26       CONSTR4   457
    X26       CONSTR5   307
    X26       CONSTR6   331
    X26       CONSTR7   932
    X26       CONSTR8   953
    X26       CONSTR9   741
    X26       CONSTR10  474
    X27       OBJ       838
    X27       CONSTR1   280
    X27       CONSTR2   939
    X27       CONSTR3   598
    X27       CONSTR4   379
    X27       CONSTR5   496
    X27       CONSTR6   392
    X27       CONSTR7   298
    X27       CONSTR8   916
    X27       CONSTR9   262
    X27       CONSTR10  183
    X28       OBJ       576
    X28       CONSTR1   434
    X28       CONSTR2   618
    X28       CONSTR3   544
    X28       CONSTR4   144
    X28       CONSTR5   45
    X28       CONSTR6   950
    X28       CONSTR7   747
    X28       CONSTR8   525
    X28       CONSTR9   103
    X28       CONSTR10  503
    X29       OBJ       642
    X29       CONSTR1   165
    X29       CONSTR2   61
    X29       CONSTR3   483
    X29       CONSTR4   614
    X29       CONSTR5   103
    X29       CONSTR6   683
    X29       CONSTR7   374
    X29       CONSTR8   197
    X29       CONSTR9   369
    X29       CONSTR10  20
    X30       OBJ       895
    X30       CONSTR1   450
    X30       CONSTR2   508
    X30       CONSTR3   590
    X30       CONSTR4   166
    X30       CONSTR5   562
    X30       CONSTR6   862
    X30       CONSTR7   42
    X30       CONSTR8   64
    X30       CONSTR9   784
    X30       CONSTR10  986
    X31       OBJ       771
    X31       CONSTR1   601
    X31       CONSTR2   890
    X31       CONSTR3   808
    X31       CONSTR4   922
    X31       CONSTR5   119
    X31       CONSTR6   230
    X31       CONSTR7   584
    X31       CONSTR8   695
    X31       CONSTR9   940
    X31       CONSTR10  387
    X32       OBJ       947
    X32       CONSTR1   667
    X32       CONSTR2   256
    X32       CONSTR3   689
    X32       CONSTR4   450
    X32       CONSTR5   102
    X32       CONSTR6   322
    X32       CONSTR7   488
    X32       CONSTR8   591
    X32       CONSTR9   667
    X32       CONSTR10  809
    X33       OBJ       696
    X33       CONSTR1   232
    X33       CONSTR2   8
    X33       CONSTR3   23
    X33       CONSTR4   72
    X33       CONSTR5   145
    X33       CONSTR6   731
    X33       CONSTR7   632
    X33       CONSTR8   584
    X33       CONSTR9   827
    X33       CONSTR10  22
    X34       OBJ       511
    X34       CONSTR1   851
    X34       CONSTR2   494
    X34       CONSTR3   65
    X34       CONSTR4   593
    X34       CONSTR5   471
    X34       CONSTR6   666
    X34       CONSTR7   192
    X34       CONSTR8   17
    X34       CONSTR9   715
    X34       CONSTR10  268
    X35       OBJ       681
    X35       CONSTR1   661
    X35       CONSTR2   624
    X35       CONSTR3   521
    X35       CONSTR4   423
    X35       CONSTR5   173
    X35       CONSTR6   44
    X35       CONSTR7   34
    X35       CONSTR8   871
    X35       CONSTR9   604
    X35       CONSTR10  796
    X36       OBJ       518
    X36       CONSTR1   532
    X36       CONSTR2   126
    X36       CONSTR3   489
    X36       CONSTR4   998
    X36       CONSTR5   442
    X36       CONSTR6   402
    X36       CONSTR7   637
    X36       CONSTR8   532
    X36       CONSTR9   819
    X36       CONSTR10  150
    X37       OBJ       776
    X37       CONSTR1   369
    X37       CONSTR2   526
    X37       CONSTR3   603
    X37       CONSTR4   299
    X37       CONSTR5   639
    X37       CONSTR6   238
    X37       CONSTR7   293
    X37       CONSTR8   228
    X37       CONSTR9   427
    X37       CONSTR10  711
    X38       OBJ       682
    X38       CONSTR1   80
    X38       CONSTR2   909
    X38       CONSTR3   920
    X38       CONSTR4   767
    X38       CONSTR5   175
    X38       CONSTR6   278
    X38       CONSTR7   423
    X38       CONSTR8   919
    X38       CONSTR9   51
    X38       CONSTR10  527
    X39       OBJ       617
    X39       CONSTR1   915
    X39       CONSTR2   39
    X39       CONSTR3   656
    X39       CONSTR4   345
    X39       CONSTR5   487
    X39       CONSTR6   471
    X39       CONSTR7   815
    X39       CONSTR8   262
    X39       CONSTR9   868
    X39       CONSTR10  505
    X40       OBJ       1046
    X40       CONSTR1   623
    X40       CONSTR2   946
    X40       CONSTR3   881
    X40       CONSTR4   410
    X40       CONSTR5   780
    X40       CONSTR6   945
    X40       CONSTR7   835
    X40       CONSTR8   753
    X40       CONSTR9   687
    X40       CONSTR10  16
    X41       OBJ       842
    X41       CONSTR1   436
    X41       CONSTR2   928
    X41       CONSTR3   563
    X41       CONSTR4   643
    X41       CONSTR5   182
    X41       CONSTR6   928
    X41       CONSTR7   180
    X41       CONSTR8   644
    X41       CONSTR9   64
    X41       CONSTR10  431
    X42       OBJ       1013
    X42       CONSTR1   922
    X42       CONSTR2   903
    X42       CONSTR3   310
    X42       CONSTR4   323
    X42       CONSTR5   24
    X42       CONSTR6   720
    X42       CONSTR7   790
    X42       CONSTR8   668
    X42       CONSTR9   620
    X42       CONSTR10  848
    X43       OBJ       435
    X43       CONSTR1   19
    X43       CONSTR2   587
    X43       CONSTR3   153
    X43       CONSTR4   753
    X43       CONSTR5   390
    X43       CONSTR6   29
    X43       CONSTR7   832
    X43       CONSTR8   816
    X43       CONSTR9   569
    X43       CONSTR10  156
    X44       OBJ       709
    X44       CONSTR1   895
    X44       CONSTR2   428
    X44       CONSTR3   123
    X44       CONSTR4   645
    X44       CONSTR5   508
    X44       CONSTR6   447
    X44       CONSTR7   276
    X44       CONSTR8   923
    X44       CONSTR9   375
    X44       CONSTR10  901
    X45       OBJ       578
    X45       CONSTR1   582
    X45       CONSTR2   111
    X45       CONSTR3   54
    X45       CONSTR4   89
    X45       CONSTR5   688
    X45       CONSTR6   102
    X45       CONSTR7   104
    X45       CONSTR8   247
    X45       CONSTR9   39
    X45       CONSTR10  772
    X46       OBJ       964
    X46       CONSTR1   838
    X46       CONSTR2   444
    X46       CONSTR3   260
    X46       CONSTR4   455
    X46       CONSTR5   493
    X46       CONSTR6   536
    X46       CONSTR7   479
    X46       CONSTR8   131
    X46       CONSTR9   682
    X46       CONSTR10  709
    X47       OBJ       739
    X47       CONSTR1   558
    X47       CONSTR2   37
    X47       CONSTR3   562
    X47       CONSTR4   511
    X47       CONSTR5   879
    X47       CONSTR6   819
    X47       CONSTR7   463
    X47       CONSTR8   264
    X47       CONSTR9   139
    X47       CONSTR10  437
    X48       OBJ       821
    X48       CONSTR1   530
    X48       CONSTR2   604
    X48       CONSTR3   765
    X48       CONSTR4   445
    X48       CONSTR5   752
    X48       CONSTR6   946
    X48       CONSTR7   971
    X48       CONSTR8   626
    X48       CONSTR9   281
    X48       CONSTR10  724
    X49       OBJ       682
    X49       CONSTR1   272
    X49       CONSTR2   794
    X49       CONSTR3   39
    X49       CONSTR4   918
    X49       CONSTR5   864
    X49       CONSTR6   81
    X49       CONSTR7   198
    X49       CONSTR8   641
    X49       CONSTR9   318
    X49       CONSTR10  556
    X50       OBJ       625
    X50       CONSTR1   297
    X50       CONSTR2   843
    X50       CONSTR3   611
    X50       CONSTR4   263
    X50       CONSTR5   917
    X50       CONSTR6   12
    X50       CONSTR7   578
    X50       CONSTR8   219
    X50       CONSTR9   600
    X50       CONSTR10  978
    X51       OBJ       680
    X51       CONSTR1   469
    X51       CONSTR2   515
    X51       CONSTR3   283
    X51       CONSTR4   79
    X51       CONSTR5   989
    X51       CONSTR6   282
    X51       CONSTR7   485
    X51       CONSTR8   35
    X51       CONSTR9   687
    X51       CONSTR10  607
    X52       OBJ       698
    X52       CONSTR1   702
    X52       CONSTR2   581
    X52       CONSTR3   469
    X52       CONSTR4   111
    X52       CONSTR5   918
    X52       CONSTR6   614
    X52       CONSTR7   398
    X52       CONSTR8   86
    X52       CONSTR9   184
    X52       CONSTR10  807
    X53       OBJ       866
    X53       CONSTR1   621
    X53       CONSTR2   799
    X53       CONSTR3   962
    X53       CONSTR4   27
    X53       CONSTR5   613
    X53       CONSTR6   843
    X53       CONSTR7   853
    X53       CONSTR8   316
    X53       CONSTR9   975
    X53       CONSTR10  794
    X54       OBJ       796
    X54       CONSTR1   24
    X54       CONSTR2   548
    X54       CONSTR3   716
    X54       CONSTR4   245
    X54       CONSTR5   195
    X54       CONSTR6   802
    X54       CONSTR7   741
    X54       CONSTR8   18
    X54       CONSTR9   97
    X54       CONSTR10  759
    X55       OBJ       916
    X55       CONSTR1   323
    X55       CONSTR2   881
    X55       CONSTR3   291
    X55       CONSTR4   72
    X55       CONSTR5   855
    X55       CONSTR6   856
    X55       CONSTR7   461
    X55       CONSTR8   318
    X55       CONSTR9   152
    X55       CONSTR10  156
    X56       OBJ       571
    X56       CONSTR1   45
    X56       CONSTR2   419
    X56       CONSTR3   628
    X56       CONSTR4   398
    X56       CONSTR5   149
    X56       CONSTR6   685
    X56       CONSTR7   381
    X56       CONSTR8   779
    X56       CONSTR9   171
    X56       CONSTR10  158
    X57       OBJ       473
    X57       CONSTR1   58
    X57       CONSTR2   4
    X57       CONSTR3   71
    X57       CONSTR4   116
    X57       CONSTR5   262
    X57       CONSTR6   58
    X57       CONSTR7   23
    X57       CONSTR8   521
    X57       CONSTR9   84
    X57       CONSTR10  218
    X58       OBJ       468
    X58       CONSTR1   410
    X58       CONSTR2   941
    X58       CONSTR3   848
    X58       CONSTR4   355
    X58       CONSTR5   427
    X58       CONSTR6   159
    X58       CONSTR7   154
    X58       CONSTR8   621
    X58       CONSTR9   409
    X58       CONSTR10  342
    X59       OBJ       639
    X59       CONSTR1   49
    X59       CONSTR2   757
    X59       CONSTR3   363
    X59       CONSTR4   416
    X59       CONSTR5   497
    X59       CONSTR6   911
    X59       CONSTR7   153
    X59       CONSTR8   976
    X59       CONSTR9   157
    X59       CONSTR10  473
    X60       OBJ       608
    X60       CONSTR1   960
    X60       CONSTR2   613
    X60       CONSTR3   26
    X60       CONSTR4   615
    X60       CONSTR5   535
    X60       CONSTR6   437
    X60       CONSTR7   919
    X60       CONSTR8   902
    X60       CONSTR9   658
    X60       CONSTR10  335
    X61       OBJ       934
    X61       CONSTR1   835
    X61       CONSTR2   467
    X61       CONSTR3   544
    X61       CONSTR4   296
    X61       CONSTR5   481
    X61       CONSTR6   687
    X61       CONSTR7   499
    X61       CONSTR8   745
    X61       CONSTR9   807
    X61       CONSTR10  949
    X62       OBJ       772
    X62       CONSTR1   962
    X62       CONSTR2   606
    X62       CONSTR3   294
    X62       CONSTR4   629
    X62       CONSTR5   17
    X62       CONSTR6   290
    X62       CONSTR7   487
    X62       CONSTR8   432
    X62       CONSTR9   435
    X62       CONSTR10  750
    X63       OBJ       692
    X63       CONSTR1   133
    X63       CONSTR2   118
    X63       CONSTR3   307
    X63       CONSTR4   328
    X63       CONSTR5   763
    X63       CONSTR6   744
    X63       CONSTR7   64
    X63       CONSTR8   303
    X63       CONSTR9   760
    X63       CONSTR10  170
    X64       OBJ       653
    X64       CONSTR1   357
    X64       CONSTR2   963
    X64       CONSTR3   261
    X64       CONSTR4   427
    X64       CONSTR5   271
    X64       CONSTR6   68
    X64       CONSTR7   289
    X64       CONSTR8   77
    X64       CONSTR9   665
    X64       CONSTR10  104
    X65       OBJ       1010
    X65       CONSTR1   840
    X65       CONSTR2   919
    X65       CONSTR3   401
    X65       CONSTR4   418
    X65       CONSTR5   171
    X65       CONSTR6   749
    X65       CONSTR7   929
    X65       CONSTR8   218
    X65       CONSTR9   967
    X65       CONSTR10  163
    X66       OBJ       1069
    X66       CONSTR1   950
    X66       CONSTR2   907
    X66       CONSTR3   832
    X66       CONSTR4   98
    X66       CONSTR5   953
    X66       CONSTR6   336
    X66       CONSTR7   572
    X66       CONSTR8   195
    X66       CONSTR9   649
    X66       CONSTR10  713
    X67       OBJ       585
    X67       CONSTR1   393
    X67       CONSTR2   290
    X67       CONSTR3   230
    X67       CONSTR4   808
    X67       CONSTR5   212
    X67       CONSTR6   510
    X67       CONSTR7   692
    X67       CONSTR8   316
    X67       CONSTR9   524
    X67       CONSTR10  804
    X68       OBJ       849
    X68       CONSTR1   32
    X68       CONSTR2   774
    X68       CONSTR3   361
    X68       CONSTR4   642
    X68       CONSTR5   585
    X68       CONSTR6   204
    X68       CONSTR7   334
    X68       CONSTR8   169
    X68       CONSTR9   827
    X68       CONSTR10  936
    X69       OBJ       903
    X69       CONSTR1   337
    X69       CONSTR2   793
    X69       CONSTR3   468
    X69       CONSTR4   637
    X69       CONSTR5   487
    X69       CONSTR6   243
    X69       CONSTR7   250
    X69       CONSTR8   250
    X69       CONSTR9   906
    X69       CONSTR10  212
    X70       OBJ       920
    X70       CONSTR1   793
    X70       CONSTR2   548
    X70       CONSTR3   516
    X70       CONSTR4   759
    X70       CONSTR5   438
    X70       CONSTR6   53
    X70       CONSTR7   631
    X70       CONSTR8   911
    X70       CONSTR9   661
    X70       CONSTR10  421
    X71       OBJ       895
    X71       CONSTR1   236
    X71       CONSTR2   114
    X71       CONSTR3   183
    X71       CONSTR4   868
    X71       CONSTR5   60
    X71       CONSTR6   915
    X71       CONSTR7   301
    X71       CONSTR8   870
    X71       CONSTR9   468
    X71       CONSTR10  549
    X72       OBJ       835
    X72       CONSTR1   891
    X72       CONSTR2   234
    X72       CONSTR3   750
    X72       CONSTR4   119
    X72       CONSTR5   654
    X72       CONSTR6   478
    X72       CONSTR7   773
    X72       CONSTR8   130
    X72       CONSTR9   533
    X72       CONSTR10  184
    X73       OBJ       701
    X73       CONSTR1   839
    X73       CONSTR2   305
    X73       CONSTR3   858
    X73       CONSTR4   697
    X73       CONSTR5   215
    X73       CONSTR6   544
    X73       CONSTR7   653
    X73       CONSTR8   332
    X73       CONSTR9   125
    X73       CONSTR10  188
    X74       OBJ       1000
    X74       CONSTR1   305
    X74       CONSTR2   390
    X74       CONSTR3   803
    X74       CONSTR4   234
    X74       CONSTR5   651
    X74       CONSTR6   847
    X74       CONSTR7   799
    X74       CONSTR8   275
    X74       CONSTR9   810
    X74       CONSTR10  661
    X75       OBJ       879
    X75       CONSTR1   924
    X75       CONSTR2   670
    X75       CONSTR3   823
    X75       CONSTR4   105
    X75       CONSTR5   292
    X75       CONSTR6   219
    X75       CONSTR7   616
    X75       CONSTR8   543
    X75       CONSTR9   867
    X75       CONSTR10  939
    X76       OBJ       1075
    X76       CONSTR1   301
    X76       CONSTR2   540
    X76       CONSTR3   748
    X76       CONSTR4   695
    X76       CONSTR5   684
    X76       CONSTR6   384
    X76       CONSTR7   862
    X76       CONSTR8   462
    X76       CONSTR9   535
    X76       CONSTR10  733
    X77       OBJ       527
    X77       CONSTR1   206
    X77       CONSTR2   69
    X77       CONSTR3   202
    X77       CONSTR4   295
    X77       CONSTR5   580
    X77       CONSTR6   649
    X77       CONSTR7   850
    X77       CONSTR8   549
    X77       CONSTR9   876
    X77       CONSTR10  626
    X78       OBJ       921
    X78       CONSTR1   399
    X78       CONSTR2   271
    X78       CONSTR3   332
    X78       CONSTR4   694
    X78       CONSTR5   419
    X78       CONSTR6   595
    X78       CONSTR7   370
    X78       CONSTR8   728
    X78       CONSTR9   106
    X78       CONSTR10  677
    X79       OBJ       790
    X79       CONSTR1   935
    X79       CONSTR2   455
    X79       CONSTR3   614
    X79       CONSTR4   944
    X79       CONSTR5   990
    X79       CONSTR6   666
    X79       CONSTR7   869
    X79       CONSTR8   864
    X79       CONSTR9   847
    X79       CONSTR10  102
    X80       OBJ       869
    X80       CONSTR1   699
    X80       CONSTR2   843
    X80       CONSTR3   56
    X80       CONSTR4   185
    X80       CONSTR5   415
    X80       CONSTR6   694
    X80       CONSTR7   330
    X80       CONSTR8   801
    X80       CONSTR9   851
    X80       CONSTR10  355
    X81       OBJ       991
    X81       CONSTR1   492
    X81       CONSTR2   898
    X81       CONSTR3   921
    X81       CONSTR4   606
    X81       CONSTR5   6
    X81       CONSTR6   708
    X81       CONSTR7   780
    X81       CONSTR8   725
    X81       CONSTR9   546
    X81       CONSTR10  487
    X82       OBJ       524
    X82       CONSTR1   361
    X82       CONSTR2   508
    X82       CONSTR3   62
    X82       CONSTR4   555
    X82       CONSTR5   897
    X82       CONSTR6   164
    X82       CONSTR7   999
    X82       CONSTR8   750
    X82       CONSTR9   318
    X82       CONSTR10  72
    X83       OBJ       441
    X83       CONSTR1   100
    X83       CONSTR2   737
    X83       CONSTR3   717
    X83       CONSTR4   647
    X83       CONSTR5   188
    X83       CONSTR6   238
    X83       CONSTR7   531
    X83       CONSTR8   685
    X83       CONSTR9   357
    X83       CONSTR10  207
    X84       OBJ       906
    X84       CONSTR1   898
    X84       CONSTR2   208
    X84       CONSTR3   572
    X84       CONSTR4   956
    X84       CONSTR5   122
    X84       CONSTR6   953
    X84       CONSTR7   492
    X84       CONSTR8   531
    X84       CONSTR9   403
    X84       CONSTR10  736
    X85       OBJ       756
    X85       CONSTR1   755
    X85       CONSTR2   222
    X85       CONSTR3   245
    X85       CONSTR4   339
    X85       CONSTR5   689
    X85       CONSTR6   105
    X85       CONSTR7   561
    X85       CONSTR8   415
    X85       CONSTR9   895
    X85       CONSTR10  567
    X86       OBJ       780
    X86       CONSTR1   474
    X86       CONSTR2   883
    X86       CONSTR3   863
    X86       CONSTR4   555
    X86       CONSTR5   271
    X86       CONSTR6   303
    X86       CONSTR7   491
    X86       CONSTR8   93
    X86       CONSTR9   223
    X86       CONSTR10  217
    X87       OBJ       710
    X87       CONSTR1   740
    X87       CONSTR2   493
    X87       CONSTR3   869
    X87       CONSTR4   615
    X87       CONSTR5   18
    X87       CONSTR6   195
    X87       CONSTR7   851
    X87       CONSTR8   272
    X87       CONSTR9   851
    X87       CONSTR10  149
    X88       OBJ       840
    X88       CONSTR1   136
    X88       CONSTR2   333
    X88       CONSTR3   375
    X88       CONSTR4   308
    X88       CONSTR5   124
    X88       CONSTR6   251
    X88       CONSTR7   331
    X88       CONSTR8   324
    X88       CONSTR9   828
    X88       CONSTR10  605
    X89       OBJ       601
    X89       CONSTR1   246
    X89       CONSTR2   658
    X89       CONSTR3   257
    X89       CONSTR4   650
    X89       CONSTR5   965
    X89       CONSTR6   741
    X89       CONSTR7   616
    X89       CONSTR8   167
    X89       CONSTR9   229
    X89       CONSTR10  353
    X90       OBJ       781
    X90       CONSTR1   372
    X90       CONSTR2   655
    X90       CONSTR3   735
    X90       CONSTR4   477
    X90       CONSTR5   568
    X90       CONSTR6   231
    X90       CONSTR7   572
    X90       CONSTR8   908
    X90       CONSTR9   7
    X90       CONSTR10  891
    X91       OBJ       792
    X91       CONSTR1   647
    X91       CONSTR2   680
    X91       CONSTR3   106
    X91       CONSTR4   458
    X91       CONSTR5   915
    X91       CONSTR6   395
    X91       CONSTR7   839
    X91       CONSTR8   78
    X91       CONSTR9   336
    X91       CONSTR10  764
    X92       OBJ       755
    X92       CONSTR1   245
    X92       CONSTR2   247
    X92       CONSTR3   465
    X92       CONSTR4   379
    X92       CONSTR5   771
    X92       CONSTR6   326
    X92       CONSTR7   101
    X92       CONSTR8   968
    X92       CONSTR9   981
    X92       CONSTR10  37
    X93       OBJ       690
    X93       CONSTR1   76
    X93       CONSTR2   824
    X93       CONSTR3   55
    X93       CONSTR4   256
    X93       CONSTR5   236
    X93       CONSTR6   223
    X93       CONSTR7   351
    X93       CONSTR8   918
    X93       CONSTR9   425
    X93       CONSTR10  45
    X94       OBJ       469
    X94       CONSTR1   875
    X94       CONSTR2   391
    X94       CONSTR3   268
    X94       CONSTR4   41
    X94       CONSTR5   204
    X94       CONSTR6   801
    X94       CONSTR7   287
    X94       CONSTR8   154
    X94       CONSTR9   254
    X94       CONSTR10  841
    X95       OBJ       801
    X95       CONSTR1   288
    X95       CONSTR2   621
    X95       CONSTR3   220
    X95       CONSTR4   704
    X95       CONSTR5   476
    X95       CONSTR6   778
    X95       CONSTR7   425
    X95       CONSTR8   292
    X95       CONSTR9   732
    X95       CONSTR10  572
    X96       OBJ       653
    X96       CONSTR1   356
    X96       CONSTR2   171
    X96       CONSTR3   228
    X96       CONSTR4   646
    X96       CONSTR5   258
    X96       CONSTR6   615
    X96       CONSTR7   11
    X96       CONSTR8   691
    X96       CONSTR9   389
    X96       CONSTR10  339
    X97       OBJ       905
    X97       CONSTR1   791
    X97       CONSTR2   136
    X97       CONSTR3   97
    X97       CONSTR4   548
    X97       CONSTR5   993
    X97       CONSTR6   31
    X97       CONSTR7   610
    X97       CONSTR8   967
    X97       CONSTR9   874
    X97       CONSTR10  867
    X98       OBJ       928
    X98       CONSTR1   257
    X98       CONSTR2   997
    X98       CONSTR3   988
    X98       CONSTR4   880
    X98       CONSTR5   918
    X98       CONSTR6   152
    X98       CONSTR7   937
    X98       CONSTR8   925
    X98       CONSTR9   118
    X98       CONSTR10  221
    X99       OBJ       620
    X99       CONSTR1   616
    X99       CONSTR2   82
    X99       CONSTR3   684
    X99       CONSTR4   670
    X99       CONSTR5   609
    X99       CONSTR6   539
    X99       CONSTR7   515
    X99       CONSTR8   904
    X99       CONSTR9   830
    X99       CONSTR10  490
    X100      OBJ       906
    X100      CONSTR1   361
    X100      CONSTR2   394
    X100      CONSTR3   756
    X100      CONSTR4   383
    X100      CONSTR5   337
    X100      CONSTR6   790
    X100      CONSTR7   71
    X100      CONSTR8   251
    X100      CONSTR9   599
    X100      CONSTR10  526
    INT0001   'MARKER'  'INTEND'
RHS
    RHS10001  CONSTR1   23993
    RHS10001  CONSTR2   24995
    RHS10001  CONSTR3   24551
    RHS10001  CONSTR4   24181
    RHS10001  CONSTR5   23179
    RHS10001  CONSTR6   23786
    RHS10001  CONSTR7   26093
    RHS10001  CONSTR8   25374
    RHS10001  CONSTR9   26242
    RHS10001  CONSTR10  24131
BOUNDS
 BV BND       X1        .00
 BV BND       X2        .00
 BV BND       X3        .00
 BV BND       X4        .00
 BV BND       X5        .00
 BV BND       X6        .00
 BV BND       X7        .00
 BV BND       X8        .00
 BV BND       X9        .00
 BV BND       X10       .00
 BV BND       X11       .00
 BV BND       X12       .00
 BV BND       X13       .00
 BV BND       X14       .00
 BV BND       X15       .00
 BV BND       X16       .00
 BV BND       X17       .00
 BV BND       X18       .00
 BV BND       X19       .00
 BV BND       X20       .00
 BV BND       X21       .00
 BV BND       X22       .00
 BV BND       X23       .00
 BV BND       X24       .00
 BV BND       X25       .00
 BV BND       X26       .00
 BV BND       X27       .00
 BV BND       X28       .00
 BV BND       X29       .00
 BV BND       X30       .00
 BV BND       X31       .00
 BV BND       X32       .00
 BV BND       X33       .00
 BV BND       X34       .00
 BV BND       X35       .00
 BV BND       X36       .00
 BV BND       X37       .00
 BV BND       X38       .00
 BV BND       X39       .00
 BV BND       X40       .00
 BV BND       X41       .00
 BV BND       X42       .00
 BV BND       X43       .00
 BV BND       X44       .00
 BV BND       X45       .00
 BV BND       X46       .00
 BV BND       X47       .00
 BV BND       X48       .00
 BV BND       X49       .00
 BV BND       X50       .00
 BV BND       X51       .00
 BV BND       X52       .00
 BV BND       X53       .00
 BV BND       X54       .00
 BV BND       X55       .00
 BV BND       X56       .00
 BV BND       X57       .00
 BV BND       X58       .00
 BV BND       X59       .00
 BV BND       X60       .00
 BV BND       X61       .00
 BV BND       X62       .00
 BV BND       X63       .00
 BV BND       X64       .00
 BV BND       X65       .00
 BV BND       X66       .00
 BV BND       X67       .00
 BV BND       X68       .00
 BV BND       X69       .00
 BV BND       X70       .00
 BV BND       X71       .00
 BV BND       X72       .00
 BV BND       X73       .00
 BV BND       X74       .00
 BV BND       X75       .00
 BV BND       X76       .00
 BV BND       X77       .00
 BV BND       X78       .00
 BV BND       X79       .00
 BV BND       X80       .00
 BV BND       X81       .00
 BV BND       X82       .00
 BV BND       X83       .00
 BV BND       X84       .00
 BV BND       X85       .00
 BV BND       X86       .00
 BV BND       X87       .00
 BV BND       X88       .00
 BV BND       X89       .00
 BV BND       X90       .00
 BV BND       X91       .00
 BV BND       X92       .00
 BV BND       X93       .00
 BV BND       X94       .00
 BV BND       X95       .00
 BV BND       X96       .00
 BV BND       X97       .00
 BV BND       X98       .00
 BV BND       X99       .00
 BV BND       X100      .00
ENDATA
